17	4	3
14	12	18	10	18	27	5	
0	0	0	0	0	9	4	10	3	8	6	3	2	3	4
3	3	0	0	0	2	2	1	3	3	3	1	6
2	3	0	0	0	6	9	3	9	3	8	3	5	14	17
9	8	0	0	0	1	3	4	4	5	4	1	17
3	0	0	3	0	2	6	2	2	3	5	2	8	17
250	0	0	0	6	2	1	8	1	4	5	3	7	11	14
50	2	0	0	0	6	6	7	6	8	10	1	17
50	10	0	0	0	9	4	8	2	3	1	3	9	13	15
250	0	0	4	0	9	4	3	3	7	8	1	10
125	0	0	3	0	6	8	4	7	9	6	1	17
50	0	0	4	0	2	10	7	10	1	10	2	12	16
125	0	9	0	0	4	6	6	1	2	4	1	17
3	7	0	0	0	10	10	7	8	1	10	1	17
4	5	0	0	0	8	9	3	10	1	9	1	17
8	0	0	6	0	8	7	7	1	4	6	1	17
3	8	0	0	0	7	5	6	4	4	6	1	17
0	0	0	0	0	4	8	1	9	8	2	0
